
  32    4
  10   10   10   10

   0   0   0   0   0   4 2 14 30 31 
   8  10  10  10  10   2 29 3 
   9  10  10  10  10   1 4 
   8  10  10  10  10   2 27 5 
   8  10  10  10  10   3 26 13 6 
   9  10  10  10  10   1 7 
   9  10  10  10  10   2 25 8 
   4  10  10  10  10   1 9 
   6  10  10  10  10   3 19 16 10 
   8  10  10  10  10   2 23 11 
  10  10  10  10  10   2 21 12 
   7  10  10  10  10   2 22 15 
   1  10  10  10  10   2 22 15 
   3  10  10  10  10   2 28 16 
   8  10  10  10  10   1 17 
  10  10  10  10  10   2 23 21 
  10  10  10  10  10   1 18 
   6  10  10  10  10   1 20 
   1  10  10  10  10   1 24 
   9  10  10  10  10   1 32
   3  10  10  10  10   1 32
  10  10  10  10  10   1 32
  10  10  10  10  10   1 32
   8  10  10  10  10   1 32
   8  10  10  10  10   1 32
   4  10  10  10  10   1 32
   6  10  10  10  10   1 32
   7  10  10  10  10   1 32
   6  10  10  10  10   1 32
   1  10  10  10  10   1 32
   6  10  10  10  10   1 32
   0   0   0   0   0   0 
